SarsaL 5000 DD 1177 586638 653484 676325 718440 647562 624173 677736 618068 658483 630824 681027 676430 613360 652799 641069 679147 618666 586963 630767 618719 652475 645453 589881 667729 608013 685755 624627 641597 667663 601603 681410 1035 626772 636601 695852 677305 668534 616037 1708 609853 2700 630251 690627 656379 589178 615512 703337 625799 633436

SarsaL 5000 DD_pt 2196 584759 644564 674371 710647 645531 632790 679125 616947 655305 632503 676168 670166 614135 649378 645994 675632 619253 581966 627863 621449 652806 638981 594235 671189 604375 686211 619258 646936 662396 596114 674090 1035 624597 633397 688501 668759 664901 621111 510528 611943 2700 629659 696379 654897 588076 620561 699649 626237 639726

SarsaL 5000 random 2224 415075 444487 440944 489388 450885 392247 463924 431576 399708 402658 459441 444498 457862 410430 454054 423541 411277 408381 395061 375846 411778 428893 393970 430157 385398 408100 444322 419779 442507 397092 487589 1035 361563 409582 485413 454783 474209 385948 353558 407918 2891 437879 454783 419373 378938 387621 534579 447858 404824

